presolving:
(round 1, fast)       8271 del vars, 34232 del conss, 0 add conss, 31568 chg bounds, 210 chg sides, 0 chg coeffs, 0 upgd conss, 0 impls, 5880 clqs
   (0.3s) running MILP presolver
   (0.4s) MILP presolver (3 rounds): 0 aggregations, 0 fixings, 0 bound changes
(round 2, medium)     8271 del vars, 49332 del conss, 9256 add conss, 31568 chg bounds, 210 chg sides, 0 chg coeffs, 0 upgd conss, 0 impls, 5880 clqs
(round 3, exhaustive) 8271 del vars, 49332 del conss, 9256 add conss, 31568 chg bounds, 210 chg sides, 0 chg coeffs, 9046 upgd conss, 0 impls, 5880 clqs
(round 4, fast)       10161 del vars, 49402 del conss, 9256 add conss, 31568 chg bounds, 210 chg sides, 0 chg coeffs, 9046 upgd conss, 6192 impls, 5880 clqs
   (2.6s) probing: 1000/5697 (17.6%) - 0 fixings, 0 aggregations, 14118 implications, 0 bound changes
   (2.6s) probing: 1001/5697 (17.6%) - 0 fixings, 0 aggregations, 14134 implications, 0 bound changes
   (2.6s) probing aborted: 1000/1000 successive useless probings
   (2.6s) symmetry computation started: requiring (bin +, int -, cont +), (fixed: bin -, int +, cont -)
   (2.6s) no symmetry present
   (2.6s) symmetry computation started: requiring (bin +, int +, cont +), (fixed: bin -, int -, cont -)
   (2.7s) no symmetry present
presolving (5 rounds: 5 fast, 3 medium, 2 exhaustive):
 36032 deleted vars, 49612 deleted constraints, 9256 added constraints, 31568 tightened bounds, 0 added holes, 210 changed sides, 0 changed coefficients
 20326 implications, 17716 cliques
presolved problem has 8793 variables (5697 bin, 0 int, 17 impl, 3079 cont) and 8976 constraints
   3096 constraints of type <varbound>
   5880 constraints of type <setppc>
Presolving Time: 2.74

 time | node  | left  |LP iter|LP it/n|mem/heur|mdpt |vars |cons |rows |cuts |sepa|confs|strbr|  dualbound   | primalbound  |  gap   | compl. 
p 2.9s|     1 |     0 |     0 |     - |  clique|   0 |8793 |8976 |8976 |   0 |  0 |   0 |   0 |-2.100000e+05 |-5.001163e+05 | 138.15%| unknown
  3.3s|     1 |     0 |  1523 |     - |   309M |   0 |8793 |8977 |8976 |   0 |  0 |   1 |   0 |-4.742760e+05 |-5.001163e+05 |   5.45%| unknown
  4.9s|     1 |     0 |  1767 |     - |   313M |   0 |8793 |8977 |8983 |   7 |  1 |   1 |   0 |-4.744341e+05 |-5.001163e+05 |   5.41%| unknown
  6.3s|     1 |     0 |  1934 |     - |   316M |   0 |8793 |8977 |8990 |  14 |  2 |   1 |   0 |-4.745473e+05 |-5.001163e+05 |   5.39%| unknown
  8.6s|     1 |     0 |  2020 |     - |   326M |   0 |8793 |8977 |8992 |  16 |  3 |   1 |   0 |-4.745661e+05 |-5.001163e+05 |   5.38%| unknown
 10.9s|     1 |     0 |  2275 |     - |   333M |   0 |8793 |8977 |8995 |  19 |  4 |   1 |   0 |-4.746046e+05 |-5.001163e+05 |   5.38%| unknown
 13.7s|     1 |     0 |  2504 |     - |   343M |   0 |8793 |8977 |8997 |  21 |  5 |   1 |   0 |-4.746473e+05 |-5.001163e+05 |   5.37%| unknown
 16.6s|     1 |     0 |  2596 |     - |   351M |   0 |8793 |8977 |8999 |  23 |  6 |   1 |   0 |-4.746685e+05 |-5.001163e+05 |   5.36%| unknown
 19.7s|     1 |     0 |  2599 |     - |   361M |   0 |8793 |8977 |9002 |  26 |  7 |   1 |   0 |-4.746685e+05 |-5.001163e+05 |   5.36%| unknown
 23.3s|     1 |     0 |  2629 |     - |   372M |   0 |8793 |8977 |9004 |  28 |  8 |   1 |   0 |-4.746690e+05 |-5.001163e+05 |   5.36%| unknown
 23.9s|     1 |     0 |  2879 |     - |   373M |   0 |8793 |8977 |9007 |  31 |  9 |   1 |   0 |-4.746806e+05 |-5.001163e+05 |   5.36%| unknown
 24.4s|     1 |     0 |  3031 |     - |   374M |   0 |8793 |8977 |9010 |  34 | 10 |   1 |   0 |-4.746877e+05 |-5.001163e+05 |   5.36%| unknown
 24.6s|     1 |     0 |  3082 |     - |   375M |   0 |8793 |8977 |9010 |  36 | 11 |   1 |   0 |-4.746911e+05 |-5.001163e+05 |   5.36%| unknown
 24.8s|     1 |     0 |  3148 |     - |   375M |   0 |8793 |8977 |9012 |  38 | 12 |   1 |   0 |-4.746931e+05 |-5.001163e+05 |   5.36%| unknown
 24.9s|     1 |     0 |  3166 |     - |   376M |   0 |8793 |8977 |9015 |  41 | 13 |   1 |   0 |-4.746937e+05 |-5.001163e+05 |   5.36%| unknown
 time | node  | left  |LP iter|LP it/n|mem/heur|mdpt |vars |cons |rows |cuts |sepa|confs|strbr|  dualbound   | primalbound  |  gap   | compl. 
 25.1s|     1 |     0 |  3236 |     - |   377M |   0 |8793 |8977 |9017 |  43 | 14 |   1 |   0 |-4.746960e+05 |-5.001163e+05 |   5.36%| unknown
 25.3s|     1 |     0 |  3468 |     - |   378M |   0 |8793 |8977 |9019 |  45 | 15 |   1 |   0 |-4.747271e+05 |-5.001163e+05 |   5.35%| unknown
 25.5s|     1 |     0 |  3598 |     - |   379M |   0 |8793 |8977 |9020 |  46 | 16 |   1 |   0 |-4.747410e+05 |-5.001163e+05 |   5.35%| unknown
 25.7s|     1 |     0 |  3746 |     - |   380M |   0 |8793 |8977 |9014 |  49 | 17 |   1 |   0 |-4.747527e+05 |-5.001163e+05 |   5.34%| unknown
 25.9s|     1 |     0 |  3748 |     - |   382M |   0 |8793 |8977 |9016 |  51 | 18 |   1 |   0 |-4.747527e+05 |-5.001163e+05 |   5.34%| unknown
 26.0s|     1 |     0 |  3750 |     - |   383M |   0 |8793 |8977 |9017 |  52 | 19 |   1 |   0 |-4.747527e+05 |-5.001163e+05 |   5.34%| unknown
 26.2s|     1 |     0 |  3768 |     - |   383M |   0 |8793 |8977 |9018 |  53 | 20 |   1 |   0 |-4.747542e+05 |-5.001163e+05 |   5.34%| unknown
d26.9s|     1 |     0 |  6446 |     - |farkasdi|   0 |8793 |8977 |9018 |   0 | 22 |   1 |   0 |-4.747542e+05 |-4.834161e+05 |   1.82%| unknown
L29.2s|     1 |     0 | 10815 |     - |    rens|   0 |8793 |8977 |9018 |  53 | 22 |   1 |   0 |-4.747542e+05 |-4.808722e+05 |   1.29%| unknown
 29.3s|     1 |     0 | 10815 |     - |   385M |   0 |8793 |8977 |9018 |  53 | 22 |   1 |   0 |-4.747542e+05 |-4.808722e+05 |   1.29%| unknown
 29.5s|     1 |     0 | 10862 |     - |   385M |   0 |8793 |8977 |9019 |  54 | 23 |   1 |   0 |-4.747556e+05 |-4.808722e+05 |   1.29%| unknown
 32.8s|     1 |     2 | 10872 |     - |   386M |   0 |8793 |8977 |9019 |  54 | 24 |   1 |  19 |-4.752037e+05 |-4.808722e+05 |   1.19%| unknown
*58.8s|    38 |    18 | 19482 | 423.4 |    LP  |  12 |8793 |8980 |9013 |  84 |  2 |   4 | 555 |-4.758939e+05 |-4.798825e+05 |   0.84%|  10.57%
*65.9s|    84 |    26 | 24623 | 250.7 |    LP  |  12 |8793 |8982 |9011 | 129 |  6 |   6 | 583 |-4.762526e+05 |-4.798307e+05 |   0.75%|  17.32%
 66.6s|   100 |    26 | 25932 | 223.4 |   408M |  12 |8793 |8982 |9003 | 134 |  2 |   6 | 583 |-4.762526e+05 |-4.798307e+05 |   0.75%|  20.39%
 time | node  | left  |LP iter|LP it/n|mem/heur|mdpt |vars |cons |rows |cuts |sepa|confs|strbr|  dualbound   | primalbound  |  gap   | compl. 
 79.1s|   200 |    30 | 34397 | 153.7 |   414M |  14 |8793 |8987 |9008 | 265 |  2 |  11 | 629 |-4.762526e+05 |-4.798307e+05 |   0.75%|  25.26%
*79.1s|   201 |    28 | 34403 | 152.9 |    LP  |  14 |8793 |8987 |9005 | 265 |  2 |  11 | 629 |-4.762526e+05 |-4.792253e+05 |   0.62%|  25.30%
*79.1s|   202 |    27 | 34417 | 152.2 |    LP  |  14 |8793 |8987 |9005 | 265 |  2 |  11 | 629 |-4.762526e+05 |-4.791640e+05 |   0.61%|  25.33%
*80.0s|   212 |    27 | 35026 | 147.9 |strongbr|  14 |8793 |8987 |9011 | 270 |  4 |  11 | 629 |-4.762526e+05 |-4.791136e+05 |   0.60%|  27.19%
*80.2s|   213 |    26 | 35203 | 148.1 |strongbr|  14 |8793 |8988 |9010 | 270 |  2 |  12 | 636 |-4.762526e+05 |-4.790677e+05 |   0.59%|  27.23%
*81.9s|   229 |    24 | 36262 | 142.3 |    LP  |  14 |8793 |8989 |9014 | 280 |  2 |  13 | 641 |-4.762526e+05 |-4.786963e+05 |   0.51%|  30.21%
*82.1s|   230 |    18 | 36340 | 142.0 |    LP  |  14 |8793 |8989 |9012 | 283 |  3 |  13 | 641 |-4.762526e+05 |-4.783695e+05 |   0.44%|  32.82%
 84.5s|   300 |    10 | 42090 | 128.0 |   422M |  14 |8793 |8995 |9005 | 283 |  1 |  19 | 669 |-4.763968e+05 |-4.783695e+05 |   0.41%|  65.23%

SCIP Status        : problem is solved [optimal solution found]
Solving Time (sec) : 86.94
Solving Nodes      : 374
Primal Bound       : -4.78369465187364e+05 (12 solutions)
Dual Bound         : -4.78369465187364e+05
Gap                : 0.00 %
Solve Status: optimal
Solve Time: 86.95 seconds
Objective Value: -478369.47
